Version identifier: 12.10.0.0 | 2019-11-26 | 843d4de
CPXPARAM_WorkMem                                 28672
Tried aggregator 2 times.
Aggregator did 30 substitutions.
Reduced MIP has 103 rows, 120 columns, and 480 nonzeros.
Reduced MIP has 120 binaries, 0 generals, 0 SOSs, and 0 indicators.
Presolve time = 0,00 sec. (0,46 ticks)
Found incumbent of value 90,000000 after 0,00 sec. (0,74 ticks)
Probing time = 0,00 sec. (0,17 ticks)
Tried aggregator 1 time.
Detecting symmetries...
MIP Presolve eliminated 21 rows and 0 columns.
MIP Presolve added 42 rows and 0 columns.
Reduced MIP has 124 rows, 120 columns, and 501 nonzeros.
Reduced MIP has 120 binaries, 0 generals, 0 SOSs, and 0 indicators.
Presolve time = 0,00 sec. (0,62 ticks)
Probing time = 0,00 sec. (0,17 ticks)
Clique table members: 340.
MIP emphasis: balance optimality and feasibility.
MIP search method: dynamic search.
Parallel mode: deterministic, using up to 16 threads.
Root relaxation solution time = 0,00 sec. (0,31 ticks)

        Nodes                                         Cuts/
   Node  Left     Objective  IInf  Best Integer    Best Bound    ItCnt     Gap

*     0+    0                           90,0000        0,0000           100,00%
*     0+    0                           55,0000        0,0000           100,00%
      0     0       30,0000    76       55,0000       30,0000       40   45,45%
*     0+    0                           54,0000       30,0000            44,44%
      0     0       30,0000    76       54,0000     Cuts: 103       87   44,44%
      0     0       30,5804    76       54,0000     Cuts: 131      161   43,37%
*     0+    0                           53,0000       30,5804            42,30%
      0     0       30,7511    76       53,0000     Cuts: 128      176   41,98%
      0     0       31,2378    76       53,0000      Cuts: 11      199   41,06%
      0     0       31,3679    76       53,0000      Cuts: 52      210   40,82%
      0     0       37,1186    76       53,0000      Cuts: 94      305   29,96%
      0     0       37,6000    76       53,0000      Cuts: 42      336   29,06%
      0     0       37,7759    76       53,0000      Cuts: 14      359   28,72%
      0     0       37,9001    76       53,0000      Cuts: 37      387   28,49%
      0     0       37,9113    76       53,0000      Cuts: 21      396   28,47%
      0     0       37,9357    76       53,0000      Cuts: 12      416   28,42%
      0     0       37,9751    76       53,0000      Cuts: 39      437   28,35%
      0     0       37,9968    76       53,0000   ZeroHalf: 6      448   28,31%
      0     0       38,0267    76       53,0000      Cuts: 34      463   28,25%
      0     0       38,0336    76       53,0000      Cuts: 22      474   28,24%
      0     0       38,0688    76       53,0000      Cuts: 16      507   28,17%
      0     0       38,0815    76       53,0000   ZeroHalf: 3      521   28,15%
      0     0       38,1103    76       53,0000  ZeroHalf: 12      534   28,09%
      0     0       38,1356    76       53,0000      Cuts: 20      552   28,05%
      0     0       38,1467    76       53,0000      Cuts: 24      569   28,03%
      0     0       38,1674    76       53,0000      Cuts: 23      589   27,99%
      0     0       38,1956    76       53,0000      Cuts: 33      612   27,93%
      0     0       38,2071    76       53,0000      Cuts: 37      629   27,91%
      0     0       38,2235    76       53,0000   ZeroHalf: 8      660   27,88%
      0     0       38,2397    76       53,0000   ZeroHalf: 3      678   27,85%
      0     0       38,2422    76       53,0000      Cuts: 25      689   27,84%
*     0+    0                           52,0000       38,2422            26,46%
      0     2       38,2422   107       52,0000       39,1167      689   24,78%
Elapsed time = 0,19 sec. (84,97 ticks, tree = 0,02 MB, solutions = 5)

Clique cuts applied:  24
Cover cuts applied:  37
Flow cuts applied:  9
Mixed integer rounding cuts applied:  42
Zero-half cuts applied:  25
Gomory fractional cuts applied:  4

Root node processing (before b&c):
  Real time             =    0,19 sec. (84,73 ticks)
Parallel b&c, 16 threads:
  Real time             =    0,02 sec. (8,32 ticks)
  Sync time (average)   =    0,01 sec.
  Wait time (average)   =    0,00 sec.
                          ------------
Total (root+branch&cut) =    0,21 sec. (93,05 ticks)
